data/solutions/recovery/degenerate/moderate/binding/degenerate_moderate_instance4/12.sol
Elapsed time: 0.1
Upper bound: 6177999.0
Planning weighted value: 27876423.0
C[0]=6177999.0
C[1]=6154823.0
C[2]=0.0
y[0]=1
y[1]=0
y[2]=0
y[3]=0
y[4]=1
y[5]=1
y[6]=0
y[7]=0
y[8]=0
y[9]=1
y[10]=0
y[11]=0
y[12]=0
y[13]=0
y[14]=0
y[15]=0
y[16]=1
y[17]=1
y[18]=0
y[19]=0
y[20]=1
y[21]=0
y[22]=1
y[23]=0
y[24]=0
