data/solutions/recovery/degenerate/moderate/binding/degenerate_moderate_instance4/12.log

Log started (V12.6.3.0) Fri Apr 20 23:04:12 2018

New value for default parallel thread count: 1

Problem '/tmp/tmpXSjk0W.pyomo.lp' read.
Read time = 0.00 sec. (0.02 ticks)

Problem name         : /tmp/tmpXSjk0W.pyomo.lp
Objective sense      : Minimize
Variables            :      80  [Nneg: 1,  Binary: 75,  General Integer: 4]
Objective nonzeros   :       1
Linear constraints   :      58  [Less: 28,  Equal: 30]
  Nonzeros           :    1176
  RHS nonzeros       :      26

Variables            : Min LB: 0.000000         Max UB: 1.000000       
Objective nonzeros   : Min   : 1.000000         Max   : 1.000000       
Linear constraints   :
  Nonzeros           : Min   : 1.000000         Max   : 1072398.       
  RHS nonzeros       : Min   : 1.000000         Max   : 1.000000       
Tried aggregator 2 times.
MIP Presolve eliminated 49 rows and 67 columns.
MIP Presolve added 2 rows and 2 columns.
Aggregator did 7 substitutions.
Reduced MIP has 4 rows, 8 columns, and 19 nonzeros.
Reduced MIP has 5 binaries, 3 generals, 0 SOSs, and 0 indicators.
Presolve time = 0.00 sec. (0.13 ticks)
Found incumbent of value 8429379.000000 after 0.00 sec. (0.17 ticks)
Probing fixed 0 vars, tightened 2 bounds.
Probing time = 0.00 sec. (0.00 ticks)
Tried aggregator 1 time.
MIP Presolve eliminated 2 rows and 2 columns.
MIP Presolve added 2 rows and 2 columns.
Reduced MIP has 4 rows, 8 columns, and 19 nonzeros.
Reduced MIP has 5 binaries, 3 generals, 0 SOSs, and 0 indicators.
Presolve time = 0.00 sec. (0.01 ticks)
Probing time = 0.00 sec. (0.00 ticks)
MIP emphasis: balance optimality and feasibility.
MIP search method: dynamic search.
Parallel mode: none, using 1 thread.
Root relaxation solution time = 0.00 sec. (0.01 ticks)

        Nodes                                         Cuts/
   Node  Left     Objective  IInf  Best Integer    Best Bound    ItCnt     Gap

*     0+    0                      8429379.0000  4684114.0000            44.43%
      0     0  6166411.0000     2  8429379.0000  6166411.0000        0   26.85%
*     0+    0                      6186653.0000  6166411.0000             0.33%
      0     0  6166411.0000     4  6186653.0000      Fract: 1        3    0.33%
*     0+    0                      6177999.0000  6166411.0000             0.19%
      0     0  6166411.0000     4  6177999.0000    MIRcuts: 1        4    0.19%
      0     2  6166411.0000     4  6177999.0000  6166411.0000        4    0.19%
Elapsed time = 0.00 sec. (0.31 ticks, tree = 0.01 MB, solutions = 3)

Mixed integer rounding cuts applied:  1

Root node processing (before b&c):
  Real time             =    0.00 sec. (0.32 ticks)
Sequential b&c:
  Real time             =    0.00 sec. (0.02 ticks)
                          ------------
Total (root+branch&cut) =    0.00 sec. (0.33 ticks)

Solution pool: 3 solutions saved.

MIP - Integer optimal solution:  Objective =  6.1779990000e+06
Solution time =    0.00 sec.  Iterations = 10  Nodes = 11
Deterministic time = 0.33 ticks  (136.31 ticks/sec)


Incumbent solution written to file '/tmp/tmpiogqFG.cplex.sol'.
